Route #1: 7 15 26 25 44 8 24 49 28
Route #2: 9 27 32 29 4 37 36 21 23 2 33 47
Route #3: 38 45 43 41 20 42 14 5 19
Route #4: 39 17 30 22 35 31 10 51 3 12
Route #5: 48 18 16 46 34 40 11 50 6 13
cost 537